(declare-const w Real)
(declare-const n Int)
(declare-const j Int)
(assert (exists ((uninterp?1 Real) (|j'?2| Int) (|w'?3| Real))
         (and (<= (+ (- j) 1) 0) (<= (+ (- n) j) 0)
                (= (+ uninterp?1 (- w) |w'?3|) 0) (= (+ |j'?2| (- j) -1) 0))))
(check-sat)
